%%%%%%%%%%%%%%%%%%%%%%%%%%%%%%%%%%%%%%%%%%%%%%%%%%%%%%%%%%%%%%%%%%%%%%%%%
%FILE DATA:	Soccer Computational Problem for MiniZinc Models
%AUTHORS:	Robinson Duque, Alejandro Arbelaez, Juan Francisco Díaz
%CONTACT:  	robinson.duque@correounivalle.edu.co 
%LAST UPDATE:	May, 2018 
%ROUND ROBIN:2
%TEAMS:20
%PRESENT FIXTURE:27
%FIXTURES TO PLAY:11
%GAMES TO PLAY:110
%%%%%%%%%%%%%%%%%%%%%%%%%%%%%%%%%%%%%%%%%%%%%%%%%%%%%%%%%%%%%%%%%%%%%%%%%
%Number of teams:
n=20;

%For the purpose of our models, we offer two representations of the games to play, namely fixtures and games to play:

%Fixtures to play:
%fixtures=[|0,1,1,1,0,1,0,1,0,1,1,0,0,1,1,0,1,1,0,0
%|1,0,1,1,0,1,1,1,1,1,1,0,1,0,0,0,1,0,0,0
%|1,1,0,1,0,0,1,0,1,1,0,0,0,1,0,1,0,1,1,1
%|1,1,1,0,1,1,0,0,0,0,1,0,1,1,1,0,0,1,0,1
%|0,0,0,1,0,1,0,1,1,0,0,0,1,0,1,1,1,1,1,1
%|1,1,0,1,1,0,0,1,0,0,1,1,1,0,0,0,0,1,1,1
%|0,1,1,0,0,0,0,1,1,0,0,0,0,1,1,1,1,1,1,1
%|1,1,0,0,1,1,1,0,0,1,1,1,0,1,1,1,0,0,0,0
%|0,1,1,0,1,0,1,0,0,1,0,1,0,0,1,0,1,1,1,1
%|1,1,1,0,0,0,0,1,1,0,1,1,1,0,0,0,1,1,0,1
%|1,1,0,1,0,1,0,1,0,1,0,1,1,0,1,1,0,1,0,0
%|0,0,0,0,0,1,0,1,1,1,1,0,1,0,0,1,1,1,1,1
%|0,1,0,1,1,1,0,0,0,1,1,1,0,1,0,1,0,0,1,1
%|1,0,1,1,0,0,1,1,0,0,0,0,1,0,1,1,1,0,1,1
%|1,0,0,1,1,0,1,1,1,0,1,0,0,1,0,1,0,1,1,0
%|0,0,1,0,1,0,1,1,0,0,1,1,1,1,1,0,1,0,1,0
%|1,1,0,0,1,0,1,0,1,1,0,1,0,1,0,1,0,0,1,1
%|1,0,1,1,1,1,1,0,1,1,1,1,0,0,1,0,0,0,0,0
%|0,0,1,0,1,1,1,0,1,0,0,1,1,1,1,1,1,0,0,0
%|0,0,1,1,1,1,1,0,1,1,0,1,1,1,0,0,1,0,0,0|];

%Played Fixtures:
%PlayedFixtures=[|0,1,1,1,2,1,2,1,2,1,1,2,2,1,1,2,1,1,2,2
%|1,0,1,1,2,1,1,1,1,1,1,2,1,2,2,2,1,2,2,2
%|1,1,0,1,2,2,1,2,1,1,2,2,2,1,2,1,2,1,1,1
%|1,1,1,0,1,1,2,2,2,2,1,2,1,1,1,2,2,1,2,1
%|2,2,2,1,0,1,2,1,1,2,2,2,1,2,1,1,1,1,1,1
%|1,1,2,1,1,0,2,1,2,2,1,1,1,2,2,2,2,1,1,1
%|2,1,1,2,2,2,0,1,1,2,2,2,2,1,1,1,1,1,1,1
%|1,1,2,2,1,1,1,0,2,1,1,1,2,1,1,1,2,2,2,2
%|2,1,1,2,1,2,1,2,0,1,2,1,2,2,1,2,1,1,1,1
%|1,1,1,2,2,2,2,1,1,0,1,1,1,2,2,2,1,1,2,1
%|1,1,2,1,2,1,2,1,2,1,0,1,1,2,1,1,2,1,2,2
%|2,2,2,2,2,1,2,1,1,1,1,0,1,2,2,1,1,1,1,1
%|2,1,2,1,1,1,2,2,2,1,1,1,0,1,2,1,2,2,1,1
%|1,2,1,1,2,2,1,1,2,2,2,2,1,0,1,1,1,2,1,1
%|1,2,2,1,1,2,1,1,1,2,1,2,2,1,0,1,2,1,1,2
%|2,2,1,2,1,2,1,1,2,2,1,1,1,1,1,0,1,2,1,2
%|1,1,2,2,1,2,1,2,1,1,2,1,2,1,2,1,0,2,1,1
%|1,2,1,1,1,1,1,2,1,1,1,1,2,2,1,2,2,0,2,2
%|2,2,1,2,1,1,1,2,1,2,2,1,1,1,1,1,1,2,0,2
%|2,2,1,1,1,1,1,2,1,1,2,1,1,1,2,2,1,2,2,0|];

%Games to play:
games=[|2,1|3,1|3,2|4,1|4,2|4,3|5,4|6,1|6,2|6,4|6,5|7,2|7,3|8,1|8,2|8,5|8,6|8,7|9,2|9,3|9,5|9,7|10,1|10,2|10,3|10,8|10,9|11,1|11,2|11,4|11,6|11,8|11,10|12,6|12,8|12,9|12,10|12,11|13,2|13,4|13,5|13,6|13,10|13,11|13,12|14,1|14,3|14,4|14,7|14,8|14,13|15,1|15,4|15,5|15,7|15,8|15,9|15,11|15,14|16,3|16,5|16,7|16,8|16,11|16,12|16,13|16,14|16,15|17,1|17,2|17,5|17,7|17,9|17,10|17,12|17,14|17,16|18,1|18,3|18,4|18,5|18,6|18,7|18,9|18,10|18,11|18,12|18,15|19,3|19,5|19,6|19,7|19,9|19,12|19,13|19,14|19,15|19,16|19,17|20,3|20,4|20,5|20,6|20,7|20,9|20,10|20,12|20,13|20,14|20,17|];

%Played Games:
%PlayedGames=[|2,1|3,1|3,2|4,1|4,2|4,3|5,1|5,1|5,2|5,2|5,3|5,3|5,4|6,1|6,2|6,3|6,3|6,4|6,5|7,1|7,1|7,2|7,3|7,4|7,4|7,5|7,5|7,6|7,6|8,1|8,2|8,3|8,3|8,4|8,4|8,5|8,6|8,7|9,1|9,1|9,2|9,3|9,4|9,4|9,5|9,6|9,6|9,7|9,8|9,8|10,1|10,2|10,3|10,4|10,4|10,5|10,5|10,6|10,6|10,7|10,7|10,8|10,9|11,1|11,2|11,3|11,3|11,4|11,5|11,5|11,6|11,7|11,7|11,8|11,9|11,9|11,10|12,1|12,1|12,2|12,2|12,3|12,3|12,4|12,4|12,5|12,5|12,6|12,7|12,7|12,8|12,9|12,10|12,11|13,1|13,1|13,2|13,3|13,3|13,4|13,5|13,6|13,7|13,7|13,8|13,8|13,9|13,9|13,10|13,11|13,12|14,1|14,2|14,2|14,3|14,4|14,5|14,5|14,6|14,6|14,7|14,8|14,9|14,9|14,10|14,10|14,11|14,11|14,12|14,12|14,13|15,1|15,2|15,2|15,3|15,3|15,4|15,5|15,6|15,6|15,7|15,8|15,9|15,10|15,10|15,11|15,12|15,12|15,13|15,13|15,14|16,1|16,1|16,2|16,2|16,3|16,4|16,4|16,5|16,6|16,6|16,7|16,8|16,9|16,9|16,10|16,10|16,11|16,12|16,13|16,14|16,15|17,1|17,2|17,3|17,3|17,4|17,4|17,5|17,6|17,6|17,7|17,8|17,8|17,9|17,10|17,11|17,11|17,12|17,13|17,13|17,14|17,15|17,15|17,16|18,1|18,2|18,2|18,3|18,4|18,5|18,6|18,7|18,8|18,8|18,9|18,10|18,11|18,12|18,13|18,13|18,14|18,14|18,15|18,16|18,16|18,17|18,17|19,1|19,1|19,2|19,2|19,3|19,4|19,4|19,5|19,6|19,7|19,8|19,8|19,9|19,10|19,10|19,11|19,11|19,12|19,13|19,14|19,15|19,16|19,17|19,18|19,18|20,1|20,1|20,2|20,2|20,3|20,4|20,5|20,6|20,7|20,8|20,8|20,9|20,10|20,11|20,11|20,12|20,13|20,14|20,15|20,15|20,16|20,16|20,17|20,18|20,18|20,19|20,19|];

%Played Games - Win Results:
%% 0  0  0  0  0  0  0  0  0  0  0  0  0  0  0  0  0  1  1  1
%% 1  0  1  0  0  0  0  0  0  0  0  0  0  0  0  1  0  1  0  2
%% 0  0  0  0  0  0  0  0  0  0  0  0  0  0  0  0  0  0  0  0
%% 1  1  1  0  1  1  0  1  0  1  1  0  1  1  0  1  0  0  0  1
%% 0  0  0  0  0  0  0  0  0  0  0  0  0  0  0  0  0  0  0  0
%% 1  1  0  0  0  0  0  0  0  2  0  1  0  0  0  0  0  0  1  0
%% 0  0  0  0  0  0  0  0  0  0  0  0  0  0  0  0  0  0  0  0
%% 1  1  1  0  1  0  0  0  1  1  0  1  0  1  0  1  0  0  0  0
%% 0  0  0  0  0  0  0  0  0  1  0  0  0  0  0  0  0  0  0  1
%% 0  0  0  0  0  0  0  0  0  0  0  0  0  0  0  0  0  0  0  0
%% 1  0  1  0  0  0  0  1  1  0  0  1  0  0  0  1  2  0  0  0
%% 0  0  0  0  0  0  0  0  0  0  0  0  0  0  0  0  0  0  0  0
%% 0  0  0  0  1  1  0  1  2  0  0  0  0  1  0  0  0  0  0  1
%% 0  0  0  0  0  0  1  0  2  0  0  0  0  0  0  0  0  0  0  1
%% 1  0  2  0  0  2  0  0  1  0  0  0  2  0  0  0  2  1  0  0
%% 0  0  0  0  0  0  1  0  0  0  0  0  0  0  0  0  0  0  1  0
%% 1  0  1  0  1  1  0  0  1  1  0  1  0  1  0  1  0  0  0  0
%% 0  0  0  0  0  0  1  0  0  0  0  1  0  0  0  0  0  0  0  0
%% 0  0  0  0  1  0  0  0  0  0  0  0  0  0  0  0  0  0  0  0
%% 0  0  0  0  0  0  0  0  0  0  0  0  0  0  0  0  0  0  0  0
%Played Games - Tie Results:
%% 0  0  1  0  2  0  2  0  2  1  0  2  2  1  0  2  0  0  1  1
%% 0  0  0  0  2  0  1  0  1  1  1  2  1  2  2  1  1  1  2  0
%% 1  0  0  0  2  2  1  1  1  1  1  2  2  1  0  1  1  1  1  1
%% 0  0  0  0  0  0  2  1  2  1  0  2  0  0  1  1  2  1  2  0
%% 2  2  2  0  0  1  2  0  1  2  2  2  0  2  1  1  0  1  0  1
%% 0  0  2  0  1  0  2  1  2  0  1  0  0  2  0  2  1  1  0  1
%% 2  1  1  2  2  2  0  1  1  2  2  2  2  0  1  0  1  0  1  1
%% 0  0  1  1  0  1  1  0  1  0  0  0  1  0  1  0  2  2  2  2
%% 2  1  1  2  1  2  1  1  0  0  1  1  0  0  0  2  0  1  1  0
%% 1  1  1  1  2  0  2  0  0  0  1  1  1  2  2  2  0  1  2  1
%% 0  1  1  0  2  1  2  0  1  1  0  0  1  2  1  0  0  1  2  2
%% 2  2  2  2  2  0  2  0  1  1  0  0  1  2  2  1  0  0  1  1
%% 2  1  2  0  0  0  2  1  0  1  1  1  0  0  0  1  2  2  1  0
%% 1  2  1  0  2  2  0  0  0  2  2  2  0  0  1  1  0  2  1  0
%% 0  2  0  1  1  0  1  1  0  2  1  2  0  1  0  1  0  0  1  2
%% 2  1  1  1  1  2  0  0  2  2  0  1  1  1  1  0  0  2  0  2
%% 0  1  1  2  0  1  1  2  0  0  0  0  2  0  0  0  0  2  1  1
%% 0  1  1  1  1  1  0  2  1  1  1  0  2  2  0  2  2  0  2  2
%% 1  2  1  2  0  0  1  2  1  2  2  1  1  1  1  0  1  2  0  2
%% 1  0  1  0  1  1  1  2  0  1  2  1  0  0  2  2  1  2  2  0
%Played Games - Lose Results:
%% 0  1  0  1  0  1  0  1  0  0  1  0  0  0  1  0  1  0  0  0
%% 0  0  0  1  0  1  0  1  0  0  0  0  0  0  0  0  0  0  0  0
%% 0  1  0  1  0  0  0  1  0  0  1  0  0  0  2  0  1  0  0  0
%% 0  0  0  0  0  0  0  0  0  0  0  0  0  0  0  0  0  0  0  0
%% 0  0  0  1  0  0  0  1  0  0  0  0  1  0  0  0  1  0  1  0
%% 0  0  0  1  0  0  0  0  0  0  0  0  1  0  2  0  1  0  0  0
%% 0  0  0  0  0  0  0  0  0  0  0  0  0  1  0  1  0  1  0  0
%% 0  0  0  1  0  0  0  0  0  0  1  0  1  0  0  0  0  0  0  0
%% 0  0  0  0  0  0  0  1  0  0  1  0  2  2  1  0  1  0  0  0
%% 0  0  0  1  0  2  0  1  1  0  0  0  0  0  0  0  1  0  0  0
%% 0  0  0  1  0  0  0  0  0  0  0  0  0  0  0  0  0  0  0  0
%% 0  0  0  0  0  1  0  1  0  0  1  0  0  0  0  0  1  1  0  0
%% 0  0  0  1  0  0  0  0  0  0  0  0  0  0  2  0  0  0  0  0
%% 0  0  0  1  0  0  0  1  0  0  0  0  1  0  0  0  1  0  0  0
%% 0  0  0  0  0  0  0  0  0  0  0  0  0  0  0  0  0  0  0  0
%% 0  1  0  1  0  0  0  1  0  0  1  0  0  0  0  0  1  0  0  0
%% 0  0  0  0  0  0  0  0  0  0  2  0  0  0  2  0  0  0  0  0
%% 1  1  0  0  0  0  0  0  0  0  0  0  0  0  1  0  0  0  0  0
%% 1  0  0  0  0  1  0  0  0  0  0  0  0  0  0  1  0  0  0  0
%% 1  2  0  1  0  0  0  0  1  0  0  0  1  1  0  0  0  0  0  0

%%Initial points:
iPoints=[26, 36, 20, 51, 22, 34, 24, 42, 23, 21, 42, 22, 38, 31, 49, 26, 41, 28, 26, 20];

%%Initial positions:
%iPositions=[13, 7, 20, 1, 17, 8, 14, 4, 15, 18, 3, 16, 6, 9, 2, 12, 5, 10, 11, 19];

%%Position Constraints:
%numberPositionConstraints=1;

%%Total Fixtures:
%totalFixtures=38;

%%Fixtures to Play:
%fixturesToPlay=11;

%%Position Constraints Built With
%wantedPoints=[0, 3, 0, 1, 1, 3, 1, 1, 0, 0, 0, 0, 3, 0, 3, 0, 3, 1, 3, 3, 3, 3, 3, 3, 0, 1, 0, 0, 3, 3, 0, 3, 0, 3, 1, 3, 3, 3, 1, 1, 3, 1, 1, 0, 1, 1, 1, 0, 3, 3, 1, 1, 1, 3, 3, 0, 0, 0, 0, 3, 1, 1, 1, 0, 3, 3, 3, 1, 3, 3, 0, 1, 3, 1, 3, 1, 0, 0, 0, 3, 0, 1, 0, 3, 1, 0, 0, 3, 0, 1, 0, 3, 1, 1, 0, 3, 0, 0, 1, 1, 0, 0, 0, 3, 3, 1, 0, 1, 0, 1];

%%Probabilities:
probabilities=[|90,8,0,2,|34,32,0,34,|84,11,0,5,|56,16,0,28,|51,29,0,20,|3,22,0,75,|38,46,0,16,|73,7,0,20,|12,6,0,82,|78,4,0,18,|95,4,0,1,|84,2,0,14,|59,15,0,26,|72,18,0,10,|40,56,0,4,|50,49,0,1,|95,1,0,4,|93,0,0,7,|33,10,0,57,|79,9,0,12,|73,11,0,16,|18,37,0,45,|90,10,0,0,|31,43,0,26,|62,28,0,10,|20,46,0,34,|70,6,0,24,|97,2,0,1,|45,35,0,20,|96,2,0,2,|60,4,0,36,|13,85,0,2,|56,14,0,30,|70,16,0,14,|30,68,0,2,|44,56,0,0,|74,17,0,9,|98,0,0,2,|56,19,0,25,|32,40,0,28,|93,1,0,6,|5,73,0,22,|6,0,0,94,|34,17,0,49,|91,8,0,1,|6,88,0,6,|55,44,0,1,|23,15,0,62,|42,13,0,45,|13,32,0,55,|75,10,0,15,|66,20,0,14,|20,11,0,69,|24,22,0,54,|41,38,0,21,|10,42,0,48,|21,36,0,43,|67,6,0,27,|84,16,0,0,|20,18,0,62,|52,27,0,21,|79,7,0,14,|31,47,0,22,|99,1,0,0,|54,0,0,46,|37,29,0,34,|83,1,0,16,|57,19,0,24,|75,16,0,9,|58,29,0,13,|45,4,0,51,|71,17,0,12,|86,3,0,11,|67,31,0,2,|48,33,0,19,|21,78,0,1,|23,9,0,68,|41,5,0,54,|11,36,0,53,|19,9,0,72,|28,70,0,2,|68,7,0,25,|22,74,0,4,|52,36,0,12,|44,51,0,5,|95,3,0,2,|74,18,0,8,|96,3,0,1,|89,10,0,1,|98,2,0,0,|84,16,0,0,|100,0,0,0,|27,70,0,3,|23,6,0,71,|33,19,0,48,|79,5,0,16,|87,9,0,4,|15,68,0,17,|5,78,0,17,|39,46,0,15,|84,11,0,5,|95,3,0,2,|7,18,0,75,|16,54,0,30,|72,8,0,20,|2,47,0,51,|75,21,0,4,|37,20,0,43,|66,32,0,2,|85,2,0,13,|];


%POSITION CONSTRAINTS
%%[|teamID, operator, position|...]
%%operators index:
%%%1 for =  operator
%%%2 for >  operator
%%%3 for >= operator
%%%4 for <  operator
%%%5 for <= operator

positionConstraints=[|2,1,8|];

%SCORE VECTOR CONSTRAINTS
%%[|teamID, operator, wantedPoints|...]
%%operators index:
%%%1 for =  operator
%%%2 for >  operator
%%%3 for >= operator
%%%4 for <  operator
%%%5 for <= operator

%scoreVectorConstraints=[|2,1,47|];

%Instance Features:
%features=T,FP,TF,C,C/T,C/TF,FP/TF,FP/T,FP*C/T,FP*T/C,(C/T)*(FP/TF),Distance,Distance/C,Distance/T,Distance/(C*T)
%values=20,11,38,1,0.05,0.02631578947368421,0.2894736842105263,0.55,0.55,220.0,0.01447368421052632,1,1.0,0.05,0.05



